p cnf 176 258 
-1  2 0 
-3  2 0 
-1 -3  4 0 
-5  6 0 
-7  6 0 
-5 -7  8 0 
-2  9 0 
-6  9 0 
-2 -6  10 0 
-4  11 0 
-8  11 0 
-4 -8  12 0 
-11  13 0 
-10  13 0 
-11 -10  14 0 
-15  16 0 
-17  16 0 
-15 -17  18 0 
-19  20 0 
-21  20 0 
-19 -21  22 0 
-16  23 0 
-20  23 0 
-16 -20  24 0 
-18  25 0 
-22  25 0 
-18 -22  26 0 
-25  27 0 
-24  27 0 
-25 -24  28 0 
-9  29 0 
-23  29 0 
-9 -23  30 0 
-14  31 0 
-28  31 0 
-14 -28  32 0 
-31  33 0 
-30  33 0 
-31 -30  34 0 
-13  35 0 
-27  35 0 
-13 -27  36 0 
-12  37 0 
-26  37 0 
-12 -26 0 
-37  38 0 
-36  38 0 
-37 -36  39 0 
-35  40 0 
-33  40 0 
-35 -33  41 0 
-38  42 0 
-34  42 0 
-38 -34  43 0 
-39  44 0 
-32  44 0 
-39 -32 0 
-45  46 0 
-47  46 0 
-45 -47  48 0 
-49  50 0 
-51  50 0 
-49 -51  52 0 
-46  53 0 
-50  53 0 
-46 -50  54 0 
-48  55 0 
-52  55 0 
-48 -52  56 0 
-55  57 0 
-54  57 0 
-55 -54  58 0 
-59  60 0 
-61  60 0 
-59 -61  62 0 
-63  64 0 
-65  64 0 
-63 -65  66 0 
-60  67 0 
-64  67 0 
-60 -64  68 0 
-62  69 0 
-66  69 0 
-62 -66  70 0 
-69  71 0 
-68  71 0 
-69 -68  72 0 
-53  73 0 
-67  73 0 
-53 -67  74 0 
-58  75 0 
-72  75 0 
-58 -72  76 0 
-75  77 0 
-74  77 0 
-75 -74  78 0 
-57  79 0 
-71  79 0 
-57 -71  80 0 
-56  81 0 
-70  81 0 
-56 -70 0 
-81  82 0 
-80  82 0 
-81 -80  83 0 
-79  84 0 
-77  84 0 
-79 -77  85 0 
-82  86 0 
-78  86 0 
-82 -78  87 0 
-83  88 0 
-76  88 0 
-83 -76 0 
-29 -73  89 0 
-43  90 0 
-87  90 0 
-43 -87 0 
-90  91 0 
-89  91 0 
-90 -89 0 
-41  92 0 
-85  92 0 
-41 -85 0 
-92 -91  93 0 
-40 -84  94 0 
-44  95 0 
-88  95 0 
-44 -88 0 
-95  96 0 
-94  96 0 
-95 -94 0 
-42  97 0 
-86  97 0 
-42 -86 0 
-97  98 0 
-96  98 0 
-97 -96 0 
-98 -93 0 
 1  3 -99 0 
 1 -100 0 
 3 -100 0 
 5  7 -101 0 
 5 -102 0 
 7 -102 0 
 99  101 -103 0 
 99 -104 0 
 101 -104 0 
 100  102 -105 0 
 100 -106 0 
 102 -106 0 
 105  104 -107 0 
 105 -108 0 
 104 -108 0 
 15  17 -109 0 
 15 -110 0 
 17 -110 0 
 19  21 -111 0 
 19 -112 0 
 21 -112 0 
 109  111 -113 0 
 109 -114 0 
 111 -114 0 
 110  112 -115 0 
 110 -116 0 
 112 -116 0 
 115  114 -117 0 
 115 -118 0 
 114 -118 0 
 103  113 -119 0 
 103 -120 0 
 113 -120 0 
 108  118 -121 0 
 108 -122 0 
 118 -122 0 
 121  120 -123 0 
 121 -124 0 
 120 -124 0 
 107  117 -125 0 
 107 -126 0 
 117 -126 0 
 106  116 -127 0 
 127  126 -128 0 
 127 -129 0 
 126 -129 0 
 125  123 -130 0 
 125 -131 0 
 123 -131 0 
 128  124 -132 0 
 128 -133 0 
 124 -133 0 
 129  122 -134 0 
 45  47 -135 0 
 45 -136 0 
 47 -136 0 
 49  51 -137 0 
 49 -138 0 
 51 -138 0 
 135  137 -139 0 
 135 -140 0 
 137 -140 0 
 136  138 -141 0 
 136 -142 0 
 138 -142 0 
 141  140 -143 0 
 141 -144 0 
 140 -144 0 
 59  61 -145 0 
 59 -146 0 
 61 -146 0 
 63  65 -147 0 
 63 -148 0 
 65 -148 0 
 145  147 -149 0 
 145 -150 0 
 147 -150 0 
 146  148 -151 0 
 146 -152 0 
 148 -152 0 
 151  150 -153 0 
 151 -154 0 
 150 -154 0 
 139  149 -155 0 
 139 -156 0 
 149 -156 0 
 144  154 -157 0 
 144 -158 0 
 154 -158 0 
 157  156 -159 0 
 157 -160 0 
 156 -160 0 
 143  153 -161 0 
 143 -162 0 
 153 -162 0 
 142  152 -163 0 
 163  162 -164 0 
 163 -165 0 
 162 -165 0 
 161  159 -166 0 
 161 -167 0 
 159 -167 0 
 164  160 -168 0 
 164 -169 0 
 160 -169 0 
 165  158 -170 0 
 119  155 0 
 119 -171 0 
 155 -171 0 
 133  169 -172 0 
 172  171 0 
 131  167 0 
 130  166 0 
 130 -173 0 
 166 -173 0 
 134  170 -174 0 
 174  173 -175 0 
 132  168 -176 0 
 176  175 0 
